200,161
584,476
629,478
753,354
694,380
721,326
850,283
826,301
778,476
921,284
850,283
745,207
598,150
296,345
657,389
694,380
1166,563
1161,406
1214,490
826,511
735,300
721,326
505,648
742,791
1020,745
937,323
609,458
699,524
